NAME: Route
NUMBER_OF_STORES: 3
NUMBER_OF_ORDERS: 2
NUMBER_OF_VEHICLES: 1
NUMBER_OF_DEPOT: 1
NODE_COORD_SECTION
57299215606db5a50e041ddf 21.028274 105.80265789999999 57299215606db5a50e041ddf
576a39e1c62867352a79dd97 21.035014 105.82469000000003 O-K5K1R4A
576a3a19c62867352a79dd99 21.016982 105.830645 O-EDHPW39
DEMAND_SECTION
576a39e1c62867352a79dd97 576a39e1c62867352a79dd97 -10 -10 50940 54540 300 0
576a3a19c62867352a79dd99 576a3a19c62867352a79dd99 -10 -10 50940 54540 300 0
DEPOT_SECTION
DEPORT_1 57299215606db5a50e041ddf 28800 79200
VEHICLES_SECTION
BIKE: 1
TRUCK: 0
57299233606db5a50e041de0 DEPORT_1 1000 100 35 25 200000 300 28800 79200 43200 46800
EOF